(set-info :smt-lib-version 2.6)
(set-logic QF_BV)
(set-info :source |
 Patrice Godefroid, SAGE (systematic dynamic test generation)
 For more information: http://research.microsoft.com/en-us/um/people/pg/public_psfiles/ndss2008.pdf
|)
(set-info :category "industrial")
(set-info :status sat)
(declare-fun T4_11113 () (_ BitVec 32))
(declare-fun T4_9717 () (_ BitVec 32))
(declare-fun T1_11113 () (_ BitVec 8))
(declare-fun T1_11114 () (_ BitVec 8))
(declare-fun T1_11115 () (_ BitVec 8))
(declare-fun T1_11116 () (_ BitVec 8))
(declare-fun T1_9717 () (_ BitVec 8))
(declare-fun T1_9718 () (_ BitVec 8))
(declare-fun T1_9719 () (_ BitVec 8))
(declare-fun T1_9720 () (_ BitVec 8))
(assert (let ((?v_3 (bvult (_ bv0 32) T4_11113)) (?v_2 (bvsdiv (_ bv0 32) T4_11113)) (?v_1 (bvsub (_ bv0 32) ((_ zero_extend 24) (ite (bvult T4_11113 (_ bv0 32)) (_ bv1 8) (_ bv0 8)))))) (let ((?v_0 (bvule ?v_1 (_ bv0 32)))) (and true (= T4_9717 (bvor (bvshl (bvor (bvshl (bvor (bvshl ((_ zero_extend 24) T1_9720) (_ bv8 32)) ((_ zero_extend 24) T1_9719)) (_ bv8 32)) ((_ zero_extend 24) T1_9718)) (_ bv8 32)) ((_ zero_extend 24) T1_9717))) (= T4_11113 (bvor (bvshl (bvor (bvshl (bvor (bvshl ((_ zero_extend 24) T1_11116) (_ bv8 32)) ((_ zero_extend 24) T1_11115)) (_ bv8 32)) ((_ zero_extend 24) T1_11114)) (_ bv8 32)) ((_ zero_extend 24) T1_11113))) (bvult T4_11113 (_ bv258 32)) (bvule (bvadd (bvsdiv (bvmul ?v_2 (_ bv33 32)) (_ bv100 32)) (_ bv33 32)) (_ bv100 32)) ?v_0 ?v_0 (bvule (_ bv0 32) ?v_1) (bvule ?v_2 (_ bv100 32)) (bvule ?v_2 (_ bv0 32)) (not (= T4_9717 (_ bv4294967295 32))) ?v_3 (bvule T4_11113 (_ bv2048 32)) (not (= (_ bv0 32) T4_11113)) (bvule (_ bv0 32) T4_11113) ?v_3 (= T4_9717 T4_11113) (not (= T4_11113 (_ bv0 32)))))))
(check-sat)
(exit)
